p cnf 14 25
9 -1 0
-9 1 0
10 -7 6 -5 0
-10 7 0
-10 -6 0
-10 5 0
-2 9 10 0
2 -9 0
2 -10 0
11 -6 -5 0
-11 6 0
-11 5 0
12 -3 -2 0
-12 3 0
-12 2 0
-4 11 12 0
4 -11 0
4 -12 0
13 -7 0
-13 7 0
14 -6 0
-14 6 0
-8 13 14 0
8 -13 0
8 -14 0
c p weight 1 0.5 0
c p weight -1 0.5 0
c p weight 2 1.0 0
c p weight -2 1.0 0
c p weight 3 1.0 0
c p weight -3 0.0 0
c p weight 4 1.0 0
c p weight -4 0.0 0
c p weight 5 0.5 0
c p weight -5 0.5 0
c p weight 6 0.5 0
c p weight -6 0.5 0
c p weight 7 1.0 0
c p weight -7 0.0 0
c p weight 8 1.0 0
c p weight -8 1.0 0
c p weight 9 1.0 0
c p weight -9 1.0 0
c p weight 10 1.0 0
c p weight -10 1.0 0
c p weight 11 1.0 0
c p weight -11 1.0 0
c p weight 12 1.0 0
c p weight -12 1.0 0
c p weight 13 1.0 0
c p weight -13 1.0 0
c p weight 14 1.0 0
c p weight -14 1.0 0
c p semirings aspmc.semirings.probabilistic 0
c p quantify 1 2 3 4 5 6 7 8 9 10 11 12 13 14 0
c p auxilliary 2 8 9 10 11 12 13 14 0
